431, 0, 0, 41, 1
432, 0, 1, 36, 0
433, 0, 2, 60, 2
434, 0, 3, 92, 3
435, 1, 0, 59, 0
436, 1, 1, 97, 3
437, 1, 2, 84, 2
438, 1, 3, 56, 1
439, 2, 0, 36, 1
440, 2, 1, 41, 0
441, 2, 2, 89, 2
442, 2, 3, 32, 3
443, 3, 0, 60, 0
444, 3, 1, 80, 3
445, 3, 2, 38, 1
446, 3, 3, 54, 2
